NAME          DCAP_3_4_2_300_SS179
ROWS
 N  OBJ
 L  CON1
 L  CON2
 L  CON3
 L  CON4
 L  CON5
 L  CON6
 L  CON7
 L  CON8
 L  CON9
 L  CON10
 L  CON11
 L  CON12
 E  CON13
 E  CON14
 E  CON15
 E  CON16
 E  CON17
 E  CON18
 E  CON19
 E  CON20
COLUMNS
    x[1,1]    OBJ       6.180167      CON1      1.000000    
    x[1,1]    CON7      -1.000000     CON8      -1.000000   
    x[1,2]    OBJ       5.039546      CON2      1.000000    
    x[1,2]    CON8      -1.000000   
    x[2,1]    OBJ       6.732585      CON3      1.000000    
    x[2,1]    CON9      -1.000000     CON10     -1.000000   
    x[2,2]    OBJ       7.443064      CON4      1.000000    
    x[2,2]    CON10     -1.000000   
    x[3,1]    OBJ       6.563535      CON5      1.000000    
    x[3,1]    CON11     -1.000000     CON12     -1.000000   
    x[3,2]    OBJ       6.054841      CON6      1.000000    
    x[3,2]    CON12     -1.000000   
    MARKER    'MARKER'                'INTORG'
    u[1,1]    OBJ       48.076654     CON1      -1.000000   
    u[1,2]    OBJ       49.466655     CON2      -1.000000   
    u[2,1]    OBJ       49.996186     CON3      -1.000000   
    u[2,2]    OBJ       32.230043     CON4      -1.000000   
    u[3,1]    OBJ       20.066487     CON5      -1.000000   
    u[3,2]    OBJ       27.484319     CON6      -1.000000   
    y[1,1,1]  OBJ       5.826568      CON7      0.798478    
    y[1,1,1]  CON13     1.000000    
    y[1,1,2]  OBJ       7.714630      CON8      1.118879    
    y[1,1,2]  CON14     1.000000    
    y[1,2,1]  OBJ       9.668305      CON7      1.189493    
    y[1,2,1]  CON15     1.000000    
    y[1,2,2]  OBJ       9.078724      CON8      0.987979    
    y[1,2,2]  CON16     1.000000    
    y[1,3,1]  OBJ       9.873656      CON7      0.594257    
    y[1,3,1]  CON17     1.000000    
    y[1,3,2]  OBJ       8.070861      CON8      1.488829    
    y[1,3,2]  CON18     1.000000    
    y[1,4,1]  OBJ       7.651491      CON7      1.210588    
    y[1,4,1]  CON19     1.000000    
    y[1,4,2]  OBJ       9.914555      CON8      1.495213    
    y[1,4,2]  CON20     1.000000    
    y[2,1,1]  OBJ       6.444548      CON9      0.798478    
    y[2,1,1]  CON13     1.000000    
    y[2,1,2]  OBJ       9.937328      CON10     1.118879    
    y[2,1,2]  CON14     1.000000    
    y[2,2,1]  OBJ       8.564918      CON9      1.189493    
    y[2,2,1]  CON15     1.000000    
    y[2,2,2]  OBJ       5.883241      CON10     0.987979    
    y[2,2,2]  CON16     1.000000    
    y[2,3,1]  OBJ       5.250006      CON9      0.594257    
    y[2,3,1]  CON17     1.000000    
    y[2,3,2]  OBJ       8.730099      CON10     1.488829    
    y[2,3,2]  CON18     1.000000    
    y[2,4,1]  OBJ       8.950576      CON9      1.210588    
    y[2,4,1]  CON19     1.000000    
    y[2,4,2]  OBJ       8.534073      CON10     1.495213    
    y[2,4,2]  CON20     1.000000    
    y[3,1,1]  OBJ       5.112986      CON11     0.798478    
    y[3,1,1]  CON13     1.000000    
    y[3,1,2]  OBJ       7.516757      CON12     1.118879    
    y[3,1,2]  CON14     1.000000    
    y[3,2,1]  OBJ       5.764505      CON11     1.189493    
    y[3,2,1]  CON15     1.000000    
    y[3,2,2]  OBJ       8.840625      CON12     0.987979    
    y[3,2,2]  CON16     1.000000    
    y[3,3,1]  OBJ       9.977205      CON11     0.594257    
    y[3,3,1]  CON17     1.000000    
    y[3,3,2]  OBJ       5.352102      CON12     1.488829    
    y[3,3,2]  CON18     1.000000    
    y[3,4,1]  OBJ       9.558417      CON11     1.210588    
    y[3,4,1]  CON19     1.000000    
    y[3,4,2]  OBJ       5.464850      CON12     1.495213    
    y[3,4,2]  CON20     1.000000    
    z[1,1]    OBJ       750.742191    CON13     1.000000    
    z[1,2]    OBJ       961.654993    CON14     1.000000    
    z[2,1]    OBJ       866.939383    CON15     1.000000    
    z[2,2]    OBJ       830.412689    CON16     1.000000    
    z[3,1]    OBJ       868.012161    CON17     1.000000    
    z[3,2]    OBJ       601.850191    CON18     1.000000    
    z[4,1]    OBJ       927.929093    CON19     1.000000    
    z[4,2]    OBJ       525.910261    CON20     1.000000    
    MARKER    'MARKER'                 'INTEND'
RHS
    RHS       CON1      -0.000000     CON2      -0.000000   
    RHS       CON3      -0.000000     CON4      -0.000000   
    RHS       CON5      -0.000000     CON6      -0.000000   
    RHS       CON7      -0.000000     CON8      -0.000000   
    RHS       CON9      -0.000000     CON10     -0.000000   
    RHS       CON11     -0.000000     CON12     -0.000000   
    RHS       CON13     1.000000      CON14     1.000000    
    RHS       CON15     1.000000      CON16     1.000000    
    RHS       CON17     1.000000      CON18     1.000000    
    RHS       CON19     1.000000      CON20     1.000000    
BOUNDS
 BV BOUND     u[1,1]  
 BV BOUND     u[1,2]  
 BV BOUND     u[2,1]  
 BV BOUND     u[2,2]  
 BV BOUND     u[3,1]  
 BV BOUND     u[3,2]  
 BV BOUND     y[1,1,1]
 BV BOUND     y[1,1,2]
 BV BOUND     y[1,2,1]
 BV BOUND     y[1,2,2]
 BV BOUND     y[1,3,1]
 BV BOUND     y[1,3,2]
 BV BOUND     y[1,4,1]
 BV BOUND     y[1,4,2]
 BV BOUND     y[2,1,1]
 BV BOUND     y[2,1,2]
 BV BOUND     y[2,2,1]
 BV BOUND     y[2,2,2]
 BV BOUND     y[2,3,1]
 BV BOUND     y[2,3,2]
 BV BOUND     y[2,4,1]
 BV BOUND     y[2,4,2]
 BV BOUND     y[3,1,1]
 BV BOUND     y[3,1,2]
 BV BOUND     y[3,2,1]
 BV BOUND     y[3,2,2]
 BV BOUND     y[3,3,1]
 BV BOUND     y[3,3,2]
 BV BOUND     y[3,4,1]
 BV BOUND     y[3,4,2]
 BV BOUND     z[1,1]  
 BV BOUND     z[1,2]  
 BV BOUND     z[2,1]  
 BV BOUND     z[2,2]  
 BV BOUND     z[3,1]  
 BV BOUND     z[3,2]  
 BV BOUND     z[4,1]  
 BV BOUND     z[4,2]  
ENDATA
